SECTION Graph
Nodes 396
Edges 781
E 1 366 1
E 2 368 1
E 3 368 15
E 3 370 6
E 4 5 1
E 5 7 15
E 6 7 1
E 6 112 7
E 7 114 7
E 8 9 1
E 8 347 7
E 8 353 1
E 8 355 2
E 9 11 15
E 9 354 1
E 9 357 2
E 10 11 1
E 10 354 15
E 10 360 6
E 11 365 2
E 12 13 1
E 12 327 7
E 12 336 1
E 12 346 12
E 13 15 15
E 13 339 1
E 13 349 12
E 14 15 1
E 14 339 15
E 14 343 6
E 15 359 12
E 16 17 1
E 16 294 7
E 16 312 1
E 16 325 12
E 17 19 15
E 17 314 1
E 17 329 12
E 18 19 1
E 18 314 15
E 18 320 6
E 19 341 12
E 20 21 1
E 20 223 30
E 20 292 12
E 21 23 15
E 21 296 12
E 22 23 1
E 23 317 12
E 24 25 1
E 24 43 7
E 24 342 1
E 25 27 15
E 25 344 1
E 26 27 1
E 26 344 15
E 26 352 9
E 26 361 7
E 27 362 7
E 28 29 1
E 28 47 7
E 28 319 1
E 28 331 6
E 29 31 15
E 29 322 1
E 29 333 6
E 30 31 1
E 30 322 15
E 30 327 12
E 30 346 7
E 31 345 6
E 31 348 7
E 32 33 1
E 32 51 7
E 32 287 1
E 32 302 6
E 33 35 15
E 33 290 1
E 33 306 6
E 34 35 1
E 34 290 15
E 34 294 12
E 34 325 7
E 35 324 6
E 35 328 7
E 36 37 1
E 36 55 7
E 36 253 1
E 36 269 6
E 37 39 15
E 37 255 1
E 37 272 6
E 38 39 1
E 38 255 15
E 38 292 7
E 39 291 6
E 39 295 7
E 40 41 1
E 40 270 30
E 40 315 1
E 41 43 15
E 41 316 1
E 42 43 1
E 42 316 15
E 42 326 9
E 42 342 7
E 44 45 1
E 44 259 14
E 44 282 1
E 44 293 6
E 45 47 15
E 45 283 1
E 45 298 6
E 46 47 1
E 46 283 15
E 46 289 12
E 46 319 7
E 47 318 6
E 48 49 1
E 48 242 7
E 48 249 1
E 48 257 5
E 49 51 15
E 49 251 1
E 49 261 5
E 50 51 1
E 50 251 15
E 50 276 3
E 50 287 7
E 51 284 5
E 52 53 1
E 52 59 7
E 52 217 1
E 52 231 6
E 53 55 15
E 53 219 1
E 53 233 6
E 54 55 1
E 54 219 15
E 54 223 12
E 54 253 7
E 55 252 6
E 56 57 1
E 56 160 10
E 56 167 1
E 56 182 7
E 57 169 1
E 57 183 6
E 57 188 8
E 58 59 1
E 58 63 19
E 58 186 7
E 58 217 7
E 59 188 7
E 59 216 6
E 60 61 1
E 60 167 19
E 61 63 15
E 61 169 19
E 62 63 1
E 63 223 30
E 64 102 1
E 64 201 8
E 64 202 8
E 64 234 7
E 65 104 5
E 65 222 8
E 65 239 1
E 65 247 7
E 66 67 1
E 66 215 7
E 66 226 1
E 67 69 15
E 67 229 1
E 68 69 1
E 68 229 15
E 68 250 1
E 68 280 16
E 69 268 7
E 69 281 16
E 70 71 1
E 70 161 7
E 70 172 1
E 70 189 8
E 71 73 15
E 71 176 1
E 71 193 8
E 72 73 1
E 72 176 15
E 72 207 1
E 72 239 16
E 73 228 8
E 73 241 16
E 74 75 1
E 74 133 7
E 74 147 1
E 74 154 8
E 75 77 15
E 75 150 1
E 75 156 8
E 76 77 1
E 76 150 15
E 76 164 2
E 76 183 8
E 77 182 7
E 77 184 8
E 78 79 1
E 78 191 1
E 79 81 15
E 79 195 1
E 80 81 1
E 80 195 15
E 80 215 7
E 80 268 23
E 81 270 23
E 82 83 1
E 82 145 7
E 82 152 1
E 82 171 13
E 83 85 15
E 83 153 1
E 83 175 13
E 84 85 1
E 84 153 15
E 84 168 5
E 84 189 7
E 85 192 7
E 85 208 13
E 86 87 1
E 86 122 7
E 86 127 1
E 86 135 10
E 87 89 15
E 87 128 1
E 87 139 10
E 88 89 1
E 88 128 15
E 88 133 8
E 88 154 7
E 89 155 7
E 89 158 10
E 90 91 1
E 90 134 1
E 91 93 15
E 91 137 1
E 92 93 1
E 92 137 15
E 92 145 13
E 92 171 7
E 93 174 7
E 94 95 1
E 94 114 1
E 94 123 5
E 95 97 15
E 95 117 1
E 95 125 5
E 96 97 1
E 96 117 15
E 96 131 1
E 96 146 7
E 97 142 5
E 97 148 7
E 98 99 1
E 98 105 11
E 99 101 15
E 99 107 11
E 100 101 1
E 100 136 30
E 101 116 9
E 101 120 11
E 101 140 30
E 102 103 3
E 102 205 8
E 102 237 7
E 103 104 1
E 103 212 8
E 103 240 7
E 104 214 8
E 104 242 7
E 105 106 1
E 105 107 1
E 106 108 1
E 106 109 10
E 107 108 1
E 107 120 15
E 108 111 10
E 108 122 15
E 109 110 1
E 109 111 1
E 110 112 1
E 110 113 1
E 111 113 1
E 111 129 15
E 112 114 1
E 112 115 1
E 113 115 1
E 113 130 15
E 114 117 1
E 115 117 1
E 115 131 15
E 116 118 1
E 116 119 1
E 118 121 1
E 118 127 8
E 119 121 1
E 119 132 15
E 120 122 1
E 120 127 7
E 121 128 8
E 121 133 15
E 122 129 10
E 123 124 1
E 123 125 1
E 124 126 1
E 124 134 13
E 125 126 1
E 125 142 15
E 126 137 13
E 126 145 15
E 127 128 1
E 129 130 1
E 129 135 7
E 130 131 1
E 130 138 7
E 132 133 1
E 132 147 7
E 134 137 1
E 135 138 1
E 135 139 1
E 136 140 1
E 136 141 1
E 138 143 1
E 138 146 2
E 139 143 1
E 139 158 15
E 140 144 1
E 140 147 2
E 141 144 1
E 141 160 15
E 142 145 1
E 142 152 7
E 143 149 2
E 143 161 15
E 144 150 2
E 144 164 15
E 146 148 1
E 146 149 1
E 147 150 1
E 148 151 1
E 148 152 5
E 149 151 1
E 149 166 15
E 151 153 5
E 151 168 15
E 152 153 1
E 154 155 1
E 154 156 1
E 155 157 1
E 155 159 3
E 156 157 1
E 156 184 15
E 157 163 3
E 157 187 15
E 158 161 1
E 158 172 7
E 159 162 1
E 159 163 1
E 160 164 1
E 161 166 2
E 162 165 1
E 162 170 5
E 163 165 1
E 163 190 15
E 165 173 5
E 165 194 15
E 166 168 1
E 167 169 1
E 169 186 8
E 170 172 1
E 170 173 1
E 171 174 1
E 171 175 1
E 172 176 1
E 173 176 1
E 173 207 15
E 174 177 1
E 174 178 1
E 175 178 1
E 175 208 15
E 177 179 1
E 177 180 1
E 178 180 1
E 178 210 15
E 179 181 1
E 179 191 7
E 180 181 1
E 180 213 15
E 181 195 7
E 181 215 15
E 182 185 1
E 182 197 8
E 183 185 1
E 183 198 8
E 184 187 1
E 184 197 7
E 185 201 8
E 185 202 8
E 186 188 1
E 187 190 3
E 187 200 7
E 188 198 6
E 189 192 1
E 189 193 1
E 190 194 1
E 190 209 7
E 191 195 1
E 192 196 1
E 192 199 3
E 193 196 1
E 193 228 15
E 194 207 5
E 194 211 7
E 196 204 3
E 196 230 15
E 197 200 1
E 197 201 1
E 198 202 1
E 198 216 7
E 199 203 1
E 199 204 1
E 200 205 1
E 200 209 3
E 201 205 1
E 202 218 7
E 203 206 1
E 203 221 9
E 204 206 1
E 204 236 15
E 205 212 3
E 206 225 9
E 206 238 15
E 207 220 7
E 208 210 1
E 208 221 7
E 209 211 1
E 209 212 1
E 210 213 1
E 210 224 7
E 211 214 1
E 211 220 5
E 212 214 1
E 213 215 1
E 213 226 7
E 214 222 5
E 216 218 1
E 216 231 7
E 217 219 1
E 218 232 7
E 218 234 8
E 220 222 1
E 221 224 1
E 221 225 1
E 224 226 1
E 224 227 1
E 225 227 1
E 225 248 15
E 226 229 1
E 227 229 1
E 227 250 15
E 228 230 1
E 230 236 3
E 231 232 1
E 231 233 1
E 232 235 1
E 232 243 8
E 233 235 1
E 233 252 15
E 234 237 1
E 234 243 7
E 235 245 8
E 235 254 15
E 236 238 1
E 236 256 16
E 237 240 3
E 237 244 7
E 238 248 9
E 238 259 16
E 239 241 1
E 239 260 14
E 240 242 1
E 240 249 7
E 241 256 12
E 241 264 14
E 242 247 5
E 243 244 1
E 243 245 1
E 244 246 1
E 244 249 3
E 245 246 1
E 245 273 15
E 246 251 3
E 246 276 15
E 247 257 7
E 248 250 1
E 248 258 7
E 249 251 1
E 250 262 7
E 252 254 1
E 252 269 7
E 253 255 1
E 254 271 7
E 254 273 8
E 256 259 1
E 256 282 14
E 257 260 1
E 257 261 1
E 258 263 1
E 259 275 6
E 260 264 1
E 260 265 1
E 261 265 1
E 261 284 15
E 262 266 1
E 263 278 8
E 264 267 1
E 264 282 12
E 265 267 1
E 265 286 15
E 266 279 8
E 267 283 12
E 267 289 15
E 268 270 1
E 268 315 30
E 269 271 1
E 269 272 1
E 271 274 1
E 271 287 12
E 272 274 1
E 272 291 15
E 273 276 1
E 274 290 12
E 274 294 15
E 275 277 1
E 275 293 14
E 277 278 2
E 277 297 14
E 278 279 1
E 278 285 7
E 279 280 1
E 279 288 7
E 280 281 1
E 280 307 14
E 281 310 14
E 282 283 1
E 284 286 1
E 285 301 7
E 286 289 1
E 286 302 7
E 287 290 1
E 288 303 7
E 289 305 7
E 291 294 1
E 291 312 7
E 292 295 1
E 292 296 1
E 293 297 1
E 293 298 1
E 295 299 1
E 295 312 6
E 296 299 1
E 296 317 15
E 297 300 1
E 297 301 2
E 298 300 1
E 298 318 15
E 299 314 6
E 299 320 15
E 300 304 2
E 300 321 15
E 301 303 1
E 301 304 1
E 302 305 1
E 302 306 1
E 303 307 1
E 303 308 1
E 304 308 1
E 304 323 15
E 305 309 1
E 305 319 12
E 306 309 1
E 306 324 15
E 307 310 1
E 307 311 1
E 308 311 1
E 308 326 15
E 309 322 12
E 309 327 15
E 310 313 1
E 310 315 7
E 311 313 1
E 312 314 1
E 313 316 7
E 315 316 1
E 317 320 1
E 318 321 1
E 318 331 7
E 319 322 1
E 321 323 2
E 321 332 7
E 323 326 1
E 323 335 7
E 324 327 1
E 324 336 7
E 325 328 1
E 325 329 1
E 326 337 7
E 328 330 1
E 328 336 6
E 329 330 1
E 329 341 15
E 330 339 6
E 330 343 15
E 331 332 1
E 331 333 1
E 332 334 1
E 332 335 2
E 333 334 1
E 333 345 15
E 334 338 2
E 334 347 15
E 335 337 1
E 335 338 1
E 336 339 1
E 337 340 1
E 337 342 9
E 338 340 1
E 338 351 15
E 340 344 9
E 340 352 15
E 341 343 1
E 342 344 1
E 345 347 1
E 345 353 7
E 346 348 1
E 346 349 1
E 347 351 2
E 348 350 1
E 348 353 6
E 349 350 1
E 349 359 15
E 350 354 6
E 350 360 15
E 351 352 1
E 351 355 7
E 352 356 7
E 353 354 1
E 355 356 1
E 355 357 1
E 356 358 1
E 356 361 9
E 357 358 1
E 357 365 15
E 358 363 9
E 358 367 15
E 359 360 1
E 361 362 1
E 361 363 1
E 362 364 1
E 362 366 6
E 363 364 1
E 363 369 15
E 364 368 6
E 364 370 15
E 365 367 1
E 366 368 1
E 367 369 9
E 369 370 1
E 1 371 100000
E 2 371 100000
E 3 371 100000
E 4 372 100000
E 5 372 100000
E 6 372 100000
E 7 372 100000
E 8 373 100000
E 9 373 100000
E 10 373 100000
E 11 373 100000
E 12 374 100000
E 13 374 100000
E 14 374 100000
E 15 374 100000
E 16 375 100000
E 17 375 100000
E 18 375 100000
E 19 375 100000
E 20 376 100000
E 21 376 100000
E 22 376 100000
E 23 376 100000
E 24 377 100000
E 25 377 100000
E 26 377 100000
E 27 377 100000
E 28 378 100000
E 29 378 100000
E 30 378 100000
E 31 378 100000
E 32 379 100000
E 33 379 100000
E 34 379 100000
E 35 379 100000
E 36 380 100000
E 37 380 100000
E 38 380 100000
E 39 380 100000
E 40 381 100000
E 41 381 100000
E 42 381 100000
E 43 381 100000
E 44 382 100000
E 45 382 100000
E 46 382 100000
E 47 382 100000
E 48 383 100000
E 49 383 100000
E 50 383 100000
E 51 383 100000
E 52 384 100000
E 53 384 100000
E 54 384 100000
E 55 384 100000
E 56 385 100000
E 57 385 100000
E 58 385 100000
E 59 385 100000
E 60 386 100000
E 61 386 100000
E 62 386 100000
E 63 386 100000
E 64 387 100000
E 65 387 100000
E 66 388 100000
E 67 388 100000
E 68 388 100000
E 69 388 100000
E 70 389 100000
E 71 389 100000
E 72 389 100000
E 73 389 100000
E 74 390 100000
E 75 390 100000
E 76 390 100000
E 77 390 100000
E 78 391 100000
E 79 391 100000
E 80 391 100000
E 81 391 100000
E 82 392 100000
E 83 392 100000
E 84 392 100000
E 85 392 100000
E 86 393 100000
E 87 393 100000
E 88 393 100000
E 89 393 100000
E 90 394 100000
E 91 394 100000
E 92 394 100000
E 93 394 100000
E 94 395 100000
E 95 395 100000
E 96 395 100000
E 97 395 100000
E 98 396 100000
E 99 396 100000
E 100 396 100000
E 101 396 100000
E 102 387 100000
E 103 387 100000
E 104 387 100000
END

SECTION Terminals
Terminals 26
T 371
T 372
T 373
T 374
T 375
T 376
T 377
T 378
T 379
T 380
T 381
T 382
T 383
T 384
T 385
T 386
T 387
T 388
T 389
T 390
T 391
T 392
T 393
T 394
T 395
T 396
END

EOF
